p cnf 86 1591
-86 0
-86 -84 -82 -41 -39 0
-86 -84 -80 -41 -37 0
-86 -84 -47 -41 -2 0
-86 -84 -45 -43 -41 0
-86 -84 -41 0
-86 -84 -41 -35 0
-86 -84 -41 -4 0
-86 -82 -80 -41 -37 0
-86 -82 -78 -43 0
-86 -82 -78 -41 -35 0
-86 -82 -78 -39 0
-86 -82 -78 -37 0
-86 -82 -78 -33 0
-86 -82 -76 -37 -33 0
-86 -82 -49 -43 -4 0
-86 -82 -47 -43 0
-86 -82 -47 -41 0
-86 -82 -47 -39 -2 0
-86 -82 -47 -37 0
-86 -82 -47 -4 0
-86 -82 -45 -43 -39 0
-86 -82 -43 -41 0
-86 -82 -43 -37 0
-86 -82 -41 -33 0
-86 -82 -41 -4 0
-86 -82 -39 -37 0
-86 -82 -39 -33 0
-86 -82 -39 -4 0
-86 -80 -76 -41 -37 0
-86 -80 -47 -41 -37 0
-86 -80 -43 -41 -37 0
-86 -80 -41 -37 -35 0
-86 -76 -37 0
-86 -53 -49 -43 -4 0
-86 -53 -47 -8 -4 0
-86 -53 -4 0
-86 -51 -47 -43 -6 0
-86 -51 -47 -41 0
-86 -51 -47 -8 0
-86 -51 -47 -4 0
-86 -51 -47 -2 0
-86 -49 -47 -43 -4 0
-86 -49 -45 -43 -4 0
-86 -49 -43 -41 -4 0
-86 -49 -43 -6 -4 0
-86 -47 -45 -43 -2 0
-86 -47 -43 -41 0
-86 -47 -43 -37 0
-86 -47 -43 -8 0
-86 -47 -41 -4 0
-86 -47 -37 -2 0
-86 -47 -8 -2 0
-86 -47 -4 -2 0
-86 -45 -43 0
-86 -45 -43 -37 0
-86 -45 -43 -6 0
-86 -43 0
-86 -43 -41 -35 0
-86 -43 -41 -6 0
-86 -43 -37 0
-86 -43 -6 0
-86 -41 0
-86 -41 -35 0
-86 -41 -4 0
-86 -37 0
-86 -4 0
-85 0
-85 -83 -81 -40 -38 0
-85 -83 -79 -40 -36 0
-85 -83 -46 -40 -1 0
-85 -83 -44 -42 -40 0
-85 -83 -40 0
-85 -83 -40 -34 0
-85 -83 -40 -3 0
-85 -81 -79 -40 -36 0
-85 -81 -77 -42 0
-85 -81 -77 -40 -34 0
-85 -81 -77 -38 0
-85 -81 -77 -36 0
-85 -81 -77 -32 0
-85 -81 -75 -36 -32 0
-85 -81 -48 -42 -3 0
-85 -81 -46 -42 0
-85 -81 -46 -40 0
-85 -81 -46 -38 -1 0
-85 -81 -46 -36 0
-85 -81 -46 -3 0
-85 -81 -44 -42 -38 0
-85 -81 -42 -40 0
-85 -81 -42 -36 0
-85 -81 -40 -32 0
-85 -81 -40 -3 0
-85 -81 -38 -36 0
-85 -81 -38 -32 0
-85 -81 -38 -3 0
-85 -79 -75 -40 -36 0
-85 -79 -46 -40 -36 0
-85 -79 -42 -40 -36 0
-85 -79 -40 -36 -34 0
-85 -75 -36 0
-85 -52 -48 -42 -3 0
-85 -52 -46 -7 -3 0
-85 -52 -3 0
-85 -50 -46 -42 -5 0
-85 -50 -46 -40 0
-85 -50 -46 -7 0
-85 -50 -46 -3 0
-85 -50 -46 -1 0
-85 -48 -46 -42 -3 0
-85 -48 -44 -42 -3 0
-85 -48 -42 -40 -3 0
-85 -48 -42 -5 -3 0
-85 -46 -44 -42 -1 0
-85 -46 -42 -40 0
-85 -46 -42 -36 0
-85 -46 -42 -7 0
-85 -46 -40 -3 0
-85 -46 -36 -1 0
-85 -46 -7 -1 0
-85 -46 -3 -1 0
-85 -44 -42 0
-85 -44 -42 -36 0
-85 -44 -42 -5 0
-85 -42 0
-85 -42 -40 -34 0
-85 -42 -40 -5 0
-85 -42 -36 0
-85 -42 -5 0
-85 -40 0
-85 -40 -34 0
-85 -40 -3 0
-85 -36 0
-85 -3 0
-84 0
-84 -82 -80 -39 -37 0
-84 -82 -78 -39 -35 0
-84 -82 -45 -43 -39 0
-84 -82 -39 0
-84 -82 -39 -33 0
-84 -82 -39 -2 0
-84 -80 -78 -39 -35 0
-84 -80 -76 -41 0
-84 -80 -76 -39 -33 0
-84 -80 -76 -37 0
-84 -80 -76 -35 0
-84 -80 -76 -31 0
-84 -80 -74 -35 -31 0
-84 -80 -47 -41 -2 0
-84 -80 -45 -43 -37 0
-84 -80 -45 -41 0
-84 -80 -45 -39 0
-84 -80 -45 -35 0
-84 -80 -45 -2 0
-84 -80 -41 -39 0
-84 -80 -41 -35 0
-84 -80 -39 -31 0
-84 -80 -39 -2 0
-84 -80 -37 -35 0
-84 -80 -37 -31 0
-84 -80 -37 -2 0
-84 -78 -74 -39 -35 0
-84 -78 -45 -39 -35 0
-84 -78 -41 -39 -35 0
-84 -78 -39 -35 -33 0
-84 -74 -35 0
-84 -51 -47 -41 -2 0
-84 -51 -45 -6 -2 0
-84 -51 -2 0
-84 -49 -45 -43 0
-84 -49 -45 -41 -4 0
-84 -49 -45 -39 0
-84 -49 -45 -6 0
-84 -49 -45 -2 0
-84 -47 -45 -41 -2 0
-84 -47 -41 -39 -2 0
-84 -47 -41 -4 -2 0
-84 -45 -43 -35 0
-84 -45 -43 -6 0
-84 -45 -43 -2 0
-84 -45 -41 -39 0
-84 -45 -41 -35 0
-84 -45 -41 -6 0
-84 -45 -39 -2 0
-84 -41 0
-84 -41 -39 -33 0
-84 -41 -39 -4 0
-84 -41 -35 0
-84 -41 -4 0
-84 -39 0
-84 -39 -33 0
-84 -39 -2 0
-84 -35 0
-84 -2 0
-83 0
-83 -81 -79 -38 -36 0
-83 -81 -77 -38 -34 0
-83 -81 -44 -42 -38 0
-83 -81 -38 0
-83 -81 -38 -32 0
-83 -81 -38 -1 0
-83 -79 -77 -38 -34 0
-83 -79 -75 -40 0
-83 -79 -75 -38 -32 0
-83 -79 -75 -36 0
-83 -79 -75 -34 0
-83 -79 -75 -30 0
-83 -79 -73 -34 -30 0
-83 -79 -46 -40 -1 0
-83 -79 -44 -42 -36 0
-83 -79 -44 -40 0
-83 -79 -44 -38 0
-83 -79 -44 -34 0
-83 -79 -44 -1 0
-83 -79 -40 -38 0
-83 -79 -40 -34 0
-83 -79 -38 -30 0
-83 -79 -38 -1 0
-83 -79 -36 -34 0
-83 -79 -36 -30 0
-83 -79 -36 -1 0
-83 -77 -73 -38 -34 0
-83 -77 -44 -38 -34 0
-83 -77 -40 -38 -34 0
-83 -77 -38 -34 -32 0
-83 -73 -34 0
-83 -50 -46 -40 -1 0
-83 -50 -44 -5 -1 0
-83 -50 -1 0
-83 -48 -44 -42 0
-83 -48 -44 -40 -3 0
-83 -48 -44 -38 0
-83 -48 -44 -5 0
-83 -48 -44 -1 0
-83 -46 -44 -40 -1 0
-83 -46 -40 -38 -1 0
-83 -46 -40 -3 -1 0
-83 -44 -42 -34 0
-83 -44 -42 -5 0
-83 -44 -42 -1 0
-83 -44 -40 -38 0
-83 -44 -40 -34 0
-83 -44 -40 -5 0
-83 -44 -38 -1 0
-83 -40 0
-83 -40 -38 -32 0
-83 -40 -38 -3 0
-83 -40 -34 0
-83 -40 -3 0
-83 -38 0
-83 -38 -32 0
-83 -38 -1 0
-83 -34 0
-83 -1 0
-82 0
-82 -80 -78 -37 -35 0
-82 -80 -76 -37 -33 0
-82 -80 -43 -37 0
-82 -80 -37 0
-82 -80 -37 -31 0
-82 -78 -76 -37 -33 0
-82 -78 -74 -39 0
-82 -78 -74 -37 -31 0
-82 -78 -74 -35 0
-82 -78 -74 -33 0
-82 -78 -74 -29 0
-82 -78 -72 -33 -29 0
-82 -78 -45 -43 -39 0
-82 -78 -43 -37 0
-82 -78 -43 -35 0
-82 -78 -39 -37 0
-82 -78 -39 -33 0
-82 -78 -37 -29 0
-82 -78 -35 -33 0
-82 -78 -35 -29 0
-82 -76 -72 -37 -33 0
-82 -76 -39 -37 -33 0
-82 -76 -37 -33 -31 0
-82 -72 -33 0
-82 -49 -45 -43 -39 0
-82 -49 -43 0
-82 -45 -43 -39 -37 0
-82 -45 -43 -39 -2 0
-82 -43 0
-82 -43 -37 0
-82 -39 0
-82 -39 -37 -31 0
-82 -39 -37 -2 0
-82 -39 -33 0
-82 -39 -2 0
-82 -37 0
-82 -37 -31 0
-82 -33 0
-81 0
-81 -79 -77 -36 -34 0
-81 -79 -75 -36 -32 0
-81 -79 -42 -36 0
-81 -79 -36 0
-81 -79 -36 -30 0
-81 -77 -75 -36 -32 0
-81 -77 -73 -38 0
-81 -77 -73 -36 -30 0
-81 -77 -73 -34 0
-81 -77 -73 -32 0
-81 -77 -73 -28 0
-81 -77 -71 -32 -28 0
-81 -77 -44 -42 -38 0
-81 -77 -42 -36 0
-81 -77 -42 -34 0
-81 -77 -38 -36 0
-81 -77 -38 -32 0
-81 -77 -36 -28 0
-81 -77 -34 -32 0
-81 -77 -34 -28 0
-81 -75 -71 -36 -32 0
-81 -75 -38 -36 -32 0
-81 -75 -36 -32 -30 0
-81 -71 -32 0
-81 -48 -44 -42 -38 0
-81 -48 -42 0
-81 -44 -42 -38 -36 0
-81 -44 -42 -38 -1 0
-81 -42 0
-81 -42 -36 0
-81 -38 0
-81 -38 -36 -30 0
-81 -38 -36 -1 0
-81 -38 -32 0
-81 -38 -1 0
-81 -36 0
-81 -36 -30 0
-81 -32 0
-80 0
-80 -78 -76 -35 -33 0
-80 -78 -74 -35 -31 0
-80 -78 -41 -35 0
-80 -78 -35 0
-80 -78 -35 -29 0
-80 -76 -74 -35 -31 0
-80 -76 -72 -37 0
-80 -76 -72 -35 -29 0
-80 -76 -72 -33 0
-80 -76 -72 -31 0
-80 -76 -72 -27 0
-80 -76 -70 -31 -27 0
-80 -76 -41 -35 0
-80 -76 -41 -33 0
-80 -76 -37 -35 0
-80 -76 -37 -31 0
-80 -76 -35 -27 0
-80 -76 -33 -31 0
-80 -76 -33 -27 0
-80 -74 -70 -35 -31 0
-80 -74 -37 -35 -31 0
-80 -74 -35 -31 -29 0
-80 -70 -31 0
-80 -47 -41 0
-80 -43 -37 0
-80 -43 -37 -35 0
-80 -41 0
-80 -41 -35 0
-80 -37 0
-80 -37 -35 -29 0
-80 -37 -31 0
-80 -35 0
-80 -35 -29 0
-80 -31 0
-79 0
-79 -77 -75 -34 -32 0
-79 -77 -73 -34 -30 0
-79 -77 -40 -34 0
-79 -77 -34 0
-79 -77 -34 -28 0
-79 -75 -73 -34 -30 0
-79 -75 -71 -36 0
-79 -75 -71 -34 -28 0
-79 -75 -71 -32 0
-79 -75 -71 -30 0
-79 -75 -71 -26 0
-79 -75 -69 -30 -26 0
-79 -75 -40 -34 0
-79 -75 -40 -32 0
-79 -75 -36 -34 0
-79 -75 -36 -30 0
-79 -75 -34 -26 0
-79 -75 -32 -30 0
-79 -75 -32 -26 0
-79 -73 -69 -34 -30 0
-79 -73 -36 -34 -30 0
-79 -73 -34 -30 -28 0
-79 -69 -30 0
-79 -46 -40 0
-79 -42 -36 0
-79 -42 -36 -34 0
-79 -40 0
-79 -40 -34 0
-79 -36 0
-79 -36 -34 -28 0
-79 -36 -30 0
-79 -34 0
-79 -34 -28 0
-79 -30 0
-78 0
-78 -76 -74 -33 -31 0
-78 -76 -72 -33 -29 0
-78 -76 -39 -33 0
-78 -76 -33 0
-78 -76 -33 -27 0
-78 -74 -72 -33 -29 0
-78 -74 -70 -35 0
-78 -74 -70 -33 -27 0
-78 -74 -70 -31 0
-78 -74 -70 -29 0
-78 -74 -70 -25 0
-78 -74 -68 -29 -25 0
-78 -74 -39 -33 0
-78 -74 -39 -31 0
-78 -74 -35 -33 0
-78 -74 -35 -29 0
-78 -74 -33 -25 0
-78 -74 -31 -29 0
-78 -74 -31 -25 0
-78 -72 -68 -33 -29 0
-78 -72 -35 -33 -29 0
-78 -72 -33 -29 -27 0
-78 -68 -29 0
-78 -45 -39 0
-78 -41 -35 0
-78 -41 -35 -33 0
-78 -39 0
-78 -39 -33 0
-78 -35 0
-78 -35 -33 -27 0
-78 -35 -29 0
-78 -33 0
-78 -33 -27 0
-78 -29 0
-77 0
-77 -75 -73 -32 -30 0
-77 -75 -71 -32 -28 0
-77 -75 -38 -32 0
-77 -75 -32 0
-77 -75 -32 -26 0
-77 -73 -71 -32 -28 0
-77 -73 -69 -34 0
-77 -73 -69 -32 -26 0
-77 -73 -69 -30 0
-77 -73 -69 -28 0
-77 -73 -69 -24 0
-77 -73 -67 -28 -24 0
-77 -73 -38 -32 0
-77 -73 -38 -30 0
-77 -73 -34 -32 0
-77 -73 -34 -28 0
-77 -73 -32 -24 0
-77 -73 -30 -28 0
-77 -73 -30 -24 0
-77 -71 -67 -32 -28 0
-77 -71 -34 -32 -28 0
-77 -71 -32 -28 -26 0
-77 -67 -28 0
-77 -44 -38 0
-77 -40 -34 0
-77 -40 -34 -32 0
-77 -38 0
-77 -38 -32 0
-77 -34 0
-77 -34 -32 -26 0
-77 -34 -28 0
-77 -32 0
-77 -32 -26 0
-77 -28 0
-76 0
-76 -74 -72 -31 -29 0
-76 -74 -70 -31 -27 0
-76 -74 -37 -31 0
-76 -74 -31 0
-76 -74 -31 -25 0
-76 -72 -70 -31 -27 0
-76 -72 -68 -33 0
-76 -72 -68 -31 -25 0
-76 -72 -68 -29 0
-76 -72 -68 -27 0
-76 -72 -68 -23 0
-76 -72 -66 -27 -23 0
-76 -72 -37 -31 0
-76 -72 -37 -29 0
-76 -72 -33 -31 0
-76 -72 -33 -27 0
-76 -72 -31 -23 0
-76 -72 -29 -27 0
-76 -72 -29 -23 0
-76 -70 -66 -31 -27 0
-76 -70 -33 -31 -27 0
-76 -70 -31 -27 -25 0
-76 -66 -27 0
-76 -39 -33 0
-76 -39 -33 -31 0
-76 -37 0
-76 -37 -31 0
-76 -33 0
-76 -33 -31 -25 0
-76 -33 -27 0
-76 -31 0
-76 -31 -25 0
-76 -27 0
-75 0
-75 -73 -71 -30 -28 0
-75 -73 -69 -30 -26 0
-75 -73 -36 -30 0
-75 -73 -30 0
-75 -73 -30 -24 0
-75 -71 -69 -30 -26 0
-75 -71 -67 -32 0
-75 -71 -67 -30 -24 0
-75 -71 -67 -28 0
-75 -71 -67 -26 0
-75 -71 -67 -22 0
-75 -71 -65 -26 -22 0
-75 -71 -36 -30 0
-75 -71 -36 -28 0
-75 -71 -32 -30 0
-75 -71 -32 -26 0
-75 -71 -30 -22 0
-75 -71 -28 -26 0
-75 -71 -28 -22 0
-75 -69 -65 -30 -26 0
-75 -69 -32 -30 -26 0
-75 -69 -30 -26 -24 0
-75 -65 -26 0
-75 -38 -32 0
-75 -38 -32 -30 0
-75 -36 0
-75 -36 -30 0
-75 -32 0
-75 -32 -30 -24 0
-75 -32 -26 0
-75 -30 0
-75 -30 -24 0
-75 -26 0
-74 0
-74 -72 -70 -29 -27 0
-74 -72 -68 -29 -25 0
-74 -72 -35 -29 0
-74 -72 -29 0
-74 -72 -29 -23 0
-74 -70 -68 -29 -25 0
-74 -70 -66 -31 0
-74 -70 -66 -29 -23 0
-74 -70 -66 -27 0
-74 -70 -66 -25 0
-74 -70 -66 -21 0
-74 -70 -64 -25 -21 0
-74 -70 -35 -29 0
-74 -70 -35 -27 0
-74 -70 -31 -29 0
-74 -70 -31 -25 0
-74 -70 -29 -21 0
-74 -70 -27 -25 0
-74 -70 -27 -21 0
-74 -68 -64 -29 -25 0
-74 -68 -31 -29 -25 0
-74 -68 -29 -25 -23 0
-74 -64 -25 0
-74 -37 -31 0
-74 -37 -31 -29 0
-74 -35 0
-74 -35 -29 0
-74 -31 0
-74 -31 -29 -23 0
-74 -31 -25 0
-74 -29 0
-74 -29 -23 0
-74 -25 0
-73 0
-73 -71 -69 -28 -26 0
-73 -71 -67 -28 -24 0
-73 -71 -34 -28 0
-73 -71 -28 0
-73 -71 -28 -22 0
-73 -69 -67 -28 -24 0
-73 -69 -65 -30 0
-73 -69 -65 -28 -22 0
-73 -69 -65 -26 0
-73 -69 -65 -24 0
-73 -69 -65 -20 0
-73 -69 -63 -24 -20 0
-73 -69 -34 -28 0
-73 -69 -34 -26 0
-73 -69 -30 -28 0
-73 -69 -30 -24 0
-73 -69 -28 -20 0
-73 -69 -26 -24 0
-73 -69 -26 -20 0
-73 -67 -63 -28 -24 0
-73 -67 -30 -28 -24 0
-73 -67 -28 -24 -22 0
-73 -63 -24 0
-73 -36 -30 0
-73 -36 -30 -28 0
-73 -34 0
-73 -34 -28 0
-73 -30 0
-73 -30 -28 -22 0
-73 -30 -24 0
-73 -28 0
-73 -28 -22 0
-73 -24 0
-72 0
-72 -70 -68 -27 -25 0
-72 -70 -66 -27 -23 0
-72 -70 -33 -27 0
-72 -70 -27 0
-72 -70 -27 -21 0
-72 -68 -66 -27 -23 0
-72 -68 -64 -29 0
-72 -68 -64 -27 -21 0
-72 -68 -64 -25 0
-72 -68 -64 -23 0
-72 -68 -64 -19 0
-72 -68 -62 -23 -19 0
-72 -68 -33 -27 0
-72 -68 -33 -25 0
-72 -68 -29 -27 0
-72 -68 -29 -23 0
-72 -68 -27 -19 0
-72 -68 -25 -23 0
-72 -68 -25 -19 0
-72 -66 -62 -27 -23 0
-72 -66 -29 -27 -23 0
-72 -66 -27 -23 -21 0
-72 -62 -23 0
-72 -35 -29 0
-72 -35 -29 -27 0
-72 -33 0
-72 -33 -27 0
-72 -29 0
-72 -29 -27 -21 0
-72 -29 -23 0
-72 -27 0
-72 -27 -21 0
-72 -23 0
-71 0
-71 -69 -67 -26 -24 0
-71 -69 -65 -26 -22 0
-71 -69 -32 -26 0
-71 -69 -26 0
-71 -69 -26 -20 0
-71 -67 -65 -26 -22 0
-71 -67 -63 -28 0
-71 -67 -63 -26 -20 0
-71 -67 -63 -24 0
-71 -67 -63 -22 0
-71 -67 -63 -18 0
-71 -67 -61 -22 -18 0
-71 -67 -32 -26 0
-71 -67 -32 -24 0
-71 -67 -28 -26 0
-71 -67 -28 -22 0
-71 -67 -26 -18 0
-71 -67 -24 -22 0
-71 -67 -24 -18 0
-71 -65 -61 -26 -22 0
-71 -65 -28 -26 -22 0
-71 -65 -26 -22 -20 0
-71 -61 -22 0
-71 -34 -28 0
-71 -34 -28 -26 0
-71 -32 0
-71 -32 -26 0
-71 -28 0
-71 -28 -26 -20 0
-71 -28 -22 0
-71 -26 0
-71 -26 -20 0
-71 -22 0
-70 0
-70 -68 -66 -25 -23 0
-70 -68 -64 -25 -21 0
-70 -68 -31 -25 0
-70 -68 -25 0
-70 -68 -25 -19 0
-70 -66 -64 -25 -21 0
-70 -66 -62 -27 0
-70 -66 -62 -25 -19 0
-70 -66 -62 -23 0
-70 -66 -62 -21 0
-70 -66 -62 -17 0
-70 -66 -60 -21 -17 0
-70 -66 -31 -25 0
-70 -66 -31 -23 0
-70 -66 -27 -25 0
-70 -66 -27 -21 0
-70 -66 -25 -17 0
-70 -66 -23 -21 0
-70 -66 -23 -17 0
-70 -64 -60 -25 -21 0
-70 -64 -27 -25 -21 0
-70 -64 -25 -21 -19 0
-70 -60 -21 0
-70 -33 -27 0
-70 -33 -27 -25 0
-70 -31 0
-70 -31 -25 0
-70 -27 0
-70 -27 -25 -19 0
-70 -27 -21 0
-70 -25 0
-70 -25 -19 0
-70 -21 0
-69 0
-69 -67 -65 -24 -22 0
-69 -67 -63 -24 -20 0
-69 -67 -30 -24 0
-69 -67 -24 0
-69 -67 -24 -18 0
-69 -65 -63 -24 -20 0
-69 -65 -61 -26 0
-69 -65 -61 -24 -18 0
-69 -65 -61 -22 0
-69 -65 -61 -20 0
-69 -65 -61 -16 0
-69 -65 -59 -20 -16 0
-69 -65 -30 -24 0
-69 -65 -30 -22 0
-69 -65 -26 -24 0
-69 -65 -26 -20 0
-69 -65 -24 -16 0
-69 -65 -22 -20 0
-69 -65 -22 -16 0
-69 -63 -59 -24 -20 0
-69 -63 -26 -24 -20 0
-69 -63 -24 -20 -18 0
-69 -59 -20 0
-69 -32 -26 0
-69 -32 -26 -24 0
-69 -30 0
-69 -30 -24 0
-69 -26 0
-69 -26 -24 -18 0
-69 -26 -20 0
-69 -24 0
-69 -24 -18 0
-69 -20 0
-68 0
-68 -66 -64 -23 -21 0
-68 -66 -62 -23 -19 0
-68 -66 -29 -23 0
-68 -66 -23 0
-68 -66 -23 -17 0
-68 -64 -62 -23 -19 0
-68 -64 -60 -25 0
-68 -64 -60 -23 -17 0
-68 -64 -60 -21 0
-68 -64 -60 -19 0
-68 -64 -60 -15 0
-68 -64 -58 -19 -15 0
-68 -64 -29 -23 0
-68 -64 -29 -21 0
-68 -64 -25 -23 0
-68 -64 -25 -19 0
-68 -64 -23 -15 0
-68 -64 -21 -19 0
-68 -64 -21 -15 0
-68 -62 -58 -23 -19 0
-68 -62 -25 -23 -19 0
-68 -62 -23 -19 -17 0
-68 -58 -19 0
-68 -31 -25 0
-68 -31 -25 -23 0
-68 -29 0
-68 -29 -23 0
-68 -25 0
-68 -25 -23 -17 0
-68 -25 -19 0
-68 -23 0
-68 -23 -17 0
-68 -19 0
-67 0
-67 -65 -63 -22 -20 0
-67 -65 -61 -22 -18 0
-67 -65 -28 -22 0
-67 -65 -22 0
-67 -65 -22 -16 0
-67 -63 -61 -22 -18 0
-67 -63 -59 -24 0
-67 -63 -59 -22 -16 0
-67 -63 -59 -20 0
-67 -63 -59 -18 0
-67 -63 -59 -14 0
-67 -63 -57 -18 -14 0
-67 -63 -28 -22 0
-67 -63 -28 -20 0
-67 -63 -24 -22 0
-67 -63 -24 -18 0
-67 -63 -22 -14 0
-67 -63 -20 -18 0
-67 -63 -20 -14 0
-67 -61 -57 -22 -18 0
-67 -61 -24 -22 -18 0
-67 -61 -22 -18 -16 0
-67 -57 -18 0
-67 -30 -24 0
-67 -30 -24 -22 0
-67 -28 0
-67 -28 -22 0
-67 -24 0
-67 -24 -22 -16 0
-67 -24 -18 0
-67 -22 0
-67 -22 -16 0
-67 -18 0
-66 0
-66 -64 -62 -21 -19 0
-66 -64 -60 -21 -17 0
-66 -64 -27 -21 0
-66 -64 -21 0
-66 -64 -21 -15 0
-66 -62 -60 -21 -17 0
-66 -62 -58 -23 0
-66 -62 -58 -21 -15 0
-66 -62 -58 -19 0
-66 -62 -58 -17 0
-66 -62 -58 -13 0
-66 -62 -56 -17 -13 0
-66 -62 -27 -21 0
-66 -62 -27 -19 0
-66 -62 -23 -21 0
-66 -62 -23 -17 0
-66 -62 -21 -13 0
-66 -62 -19 -17 0
-66 -62 -19 -13 0
-66 -60 -56 -21 -17 0
-66 -60 -23 -21 -17 0
-66 -60 -21 -17 -15 0
-66 -56 -17 0
-66 -29 -23 0
-66 -29 -23 -21 0
-66 -27 0
-66 -27 -21 0
-66 -23 0
-66 -23 -21 -15 0
-66 -23 -17 0
-66 -21 0
-66 -21 -15 0
-66 -17 0
-65 0
-65 -63 -61 -20 -18 0
-65 -63 -59 -20 -16 0
-65 -63 -26 -20 0
-65 -63 -20 0
-65 -63 -20 -14 0
-65 -61 -59 -20 -16 0
-65 -61 -57 -22 0
-65 -61 -57 -20 -14 0
-65 -61 -57 -18 0
-65 -61 -57 -16 0
-65 -61 -57 -12 0
-65 -61 -55 -16 -12 0
-65 -61 -26 -20 0
-65 -61 -26 -18 0
-65 -61 -22 -20 0
-65 -61 -22 -16 0
-65 -61 -20 -12 0
-65 -61 -18 -16 0
-65 -61 -18 -12 0
-65 -59 -55 -20 -16 0
-65 -59 -22 -20 -16 0
-65 -59 -20 -16 -14 0
-65 -55 -16 0
-65 -28 -22 0
-65 -28 -22 -20 0
-65 -26 0
-65 -26 -20 0
-65 -22 0
-65 -22 -20 -14 0
-65 -22 -16 0
-65 -20 0
-65 -20 -14 0
-65 -16 0
-64 0
-64 -62 -60 -19 -17 0
-64 -62 -58 -19 -15 0
-64 -62 -25 -19 0
-64 -62 -19 0
-64 -62 -19 -13 0
-64 -60 -58 -19 -15 0
-64 -60 -56 -21 0
-64 -60 -56 -19 -13 0
-64 -60 -56 -17 0
-64 -60 -56 -15 0
-64 -60 -56 -11 0
-64 -60 -54 -15 -11 0
-64 -60 -25 -19 0
-64 -60 -25 -17 0
-64 -60 -21 -19 0
-64 -60 -21 -15 0
-64 -60 -19 -11 0
-64 -60 -17 -15 0
-64 -60 -17 -11 0
-64 -58 -54 -19 -15 0
-64 -58 -21 -19 -15 0
-64 -58 -19 -15 -13 0
-64 -54 -15 0
-64 -27 -21 0
-64 -27 -21 -19 0
-64 -25 0
-64 -25 -19 0
-64 -21 0
-64 -21 -19 -13 0
-64 -21 -15 0
-64 -19 0
-64 -19 -13 0
-64 -15 0
-63 0
-63 -61 -59 -18 -16 0
-63 -61 -57 -18 -14 0
-63 -61 -24 -18 0
-63 -61 -18 0
-63 -61 -18 -12 0
-63 -59 -57 -18 -14 0
-63 -59 -55 -20 0
-63 -59 -55 -18 -12 0
-63 -59 -55 -16 0
-63 -59 -55 -14 0
-63 -59 -55 -10 0
-63 -59 -53 -14 -10 0
-63 -59 -24 -18 0
-63 -59 -24 -16 0
-63 -59 -20 -18 0
-63 -59 -20 -14 0
-63 -59 -18 -10 0
-63 -59 -16 -14 0
-63 -59 -16 -10 0
-63 -57 -53 -18 -14 0
-63 -57 -20 -18 -14 0
-63 -57 -18 -14 -12 0
-63 -53 -14 0
-63 -26 -20 0
-63 -26 -20 -18 0
-63 -24 0
-63 -24 -18 0
-63 -20 0
-63 -20 -18 -12 0
-63 -20 -14 0
-63 -18 0
-63 -18 -12 0
-63 -14 0
-62 0
-62 -60 -58 -17 -15 0
-62 -60 -56 -17 -13 0
-62 -60 -23 -17 0
-62 -60 -17 0
-62 -60 -17 -11 0
-62 -58 -56 -17 -13 0
-62 -58 -54 -19 0
-62 -58 -54 -17 -11 0
-62 -58 -54 -15 0
-62 -58 -54 -13 0
-62 -58 -54 -9 0
-62 -58 -52 -13 -9 0
-62 -58 -23 -17 0
-62 -58 -23 -15 0
-62 -58 -19 -17 0
-62 -58 -19 -13 0
-62 -58 -17 -9 0
-62 -58 -15 -13 0
-62 -58 -15 -9 0
-62 -56 -52 -17 -13 0
-62 -56 -19 -17 -13 0
-62 -56 -17 -13 -11 0
-62 -52 -13 0
-62 -25 -19 0
-62 -25 -19 -17 0
-62 -23 0
-62 -23 -17 0
-62 -19 0
-62 -19 -17 -11 0
-62 -19 -13 0
-62 -17 0
-62 -17 -11 0
-62 -13 0
-61 0
-61 -59 -57 -16 -14 0
-61 -59 -55 -16 -12 0
-61 -59 -22 -16 0
-61 -59 -16 0
-61 -59 -16 -10 0
-61 -57 -55 -16 -12 0
-61 -57 -53 -18 0
-61 -57 -53 -16 -10 0
-61 -57 -53 -14 0
-61 -57 -53 -12 0
-61 -57 -53 -8 0
-61 -57 -51 -12 -8 0
-61 -57 -22 -16 0
-61 -57 -22 -14 0
-61 -57 -18 -16 0
-61 -57 -18 -12 0
-61 -57 -16 -8 0
-61 -57 -14 -12 0
-61 -57 -14 -8 0
-61 -55 -51 -16 -12 0
-61 -55 -18 -16 -12 0
-61 -55 -16 -12 -10 0
-61 -51 -12 0
-61 -24 -18 0
-61 -24 -18 -16 0
-61 -22 0
-61 -22 -16 0
-61 -18 0
-61 -18 -16 -10 0
-61 -18 -12 0
-61 -16 0
-61 -16 -10 0
-61 -12 0
-60 0
-60 -58 -56 -15 -13 0
-60 -58 -54 -15 -11 0
-60 -58 -21 -15 0
-60 -58 -15 0
-60 -58 -15 -9 0
-60 -56 -54 -15 -11 0
-60 -56 -52 -17 0
-60 -56 -52 -15 -9 0
-60 -56 -52 -13 0
-60 -56 -52 -11 0
-60 -56 -52 -7 0
-60 -56 -50 -11 -7 0
-60 -56 -21 -15 0
-60 -56 -21 -13 0
-60 -56 -17 -15 0
-60 -56 -17 -11 0
-60 -56 -15 -7 0
-60 -56 -13 -11 0
-60 -56 -13 -7 0
-60 -54 -50 -15 -11 0
-60 -54 -17 -15 -11 0
-60 -54 -15 -11 -9 0
-60 -50 -11 0
-60 -23 -17 0
-60 -23 -17 -15 0
-60 -21 0
-60 -21 -15 0
-60 -17 0
-60 -17 -15 -9 0
-60 -17 -11 0
-60 -15 0
-60 -15 -9 0
-60 -11 0
-59 0
-59 -57 -55 -14 -12 0
-59 -57 -53 -14 -10 0
-59 -57 -20 -14 0
-59 -57 -14 0
-59 -57 -14 -8 0
-59 -55 -53 -14 -10 0
-59 -55 -51 -16 0
-59 -55 -51 -14 -8 0
-59 -55 -51 -12 0
-59 -55 -51 -10 0
-59 -55 -51 -6 0
-59 -55 -49 -10 -6 0
-59 -55 -20 -14 0
-59 -55 -20 -12 0
-59 -55 -16 -14 0
-59 -55 -16 -10 0
-59 -55 -14 -6 0
-59 -55 -12 -10 0
-59 -55 -12 -6 0
-59 -53 -49 -14 -10 0
-59 -53 -16 -14 -10 0
-59 -53 -14 -10 -8 0
-59 -49 -10 0
-59 -22 -16 0
-59 -22 -16 -14 0
-59 -20 0
-59 -20 -14 0
-59 -16 0
-59 -16 -14 -8 0
-59 -16 -10 0
-59 -14 0
-59 -14 -8 0
-59 -10 0
-58 0
-58 -56 -54 -13 -11 0
-58 -56 -52 -13 -9 0
-58 -56 -19 -13 0
-58 -56 -13 0
-58 -56 -13 -7 0
-58 -54 -52 -13 -9 0
-58 -54 -50 -15 0
-58 -54 -50 -13 -7 0
-58 -54 -50 -11 0
-58 -54 -50 -9 0
-58 -54 -50 -5 0
-58 -54 -48 -9 -5 0
-58 -54 -19 -13 0
-58 -54 -19 -11 0
-58 -54 -15 -13 0
-58 -54 -15 -9 0
-58 -54 -13 -5 0
-58 -54 -11 -9 0
-58 -54 -11 -5 0
-58 -52 -48 -13 -9 0
-58 -52 -15 -13 -9 0
-58 -52 -13 -9 -7 0
-58 -48 -9 0
-58 -21 -15 0
-58 -21 -15 -13 0
-58 -19 0
-58 -19 -13 0
-58 -15 0
-58 -15 -13 -7 0
-58 -15 -9 0
-58 -13 0
-58 -13 -7 0
-58 -9 0
-57 0
-57 -55 -53 -12 -10 0
-57 -55 -51 -12 -8 0
-57 -55 -18 -12 0
-57 -55 -12 0
-57 -55 -12 -6 0
-57 -53 -51 -12 -8 0
-57 -53 -49 -14 0
-57 -53 -49 -12 -6 0
-57 -53 -49 -10 0
-57 -53 -49 -8 0
-57 -53 -49 -4 0
-57 -53 -47 -8 -4 0
-57 -53 -18 -12 0
-57 -53 -18 -10 0
-57 -53 -14 -12 0
-57 -53 -14 -8 0
-57 -53 -12 -4 0
-57 -53 -10 -8 0
-57 -53 -10 -4 0
-57 -51 -47 -12 -8 0
-57 -51 -14 -12 -8 0
-57 -51 -12 -8 -6 0
-57 -47 -8 0
-57 -20 -14 0
-57 -20 -14 -12 0
-57 -18 0
-57 -18 -12 0
-57 -14 0
-57 -14 -12 -6 0
-57 -14 -8 0
-57 -12 0
-57 -12 -6 0
-57 -8 0
-56 0
-56 -54 -52 -11 -9 0
-56 -54 -50 -11 -7 0
-56 -54 -17 -11 0
-56 -54 -11 0
-56 -54 -11 -5 0
-56 -52 -50 -11 -7 0
-56 -52 -48 -13 0
-56 -52 -48 -11 -5 0
-56 -52 -48 -9 0
-56 -52 -48 -7 0
-56 -52 -48 -3 0
-56 -52 -46 -7 -3 0
-56 -52 -17 -11 0
-56 -52 -17 -9 0
-56 -52 -13 -11 0
-56 -52 -13 -7 0
-56 -52 -11 -3 0
-56 -52 -9 -7 0
-56 -52 -9 -3 0
-56 -50 -46 -11 -7 0
-56 -50 -13 -11 -7 0
-56 -50 -11 -7 -5 0
-56 -46 -7 0
-56 -19 -13 0
-56 -19 -13 -11 0
-56 -17 0
-56 -17 -11 0
-56 -13 0
-56 -13 -11 -5 0
-56 -13 -7 0
-56 -11 0
-56 -11 -5 0
-56 -7 0
-55 0
-55 -53 -51 -10 -8 0
-55 -53 -49 -10 -6 0
-55 -53 -16 -10 0
-55 -53 -10 0
-55 -53 -10 -4 0
-55 -51 -49 -10 -6 0
-55 -51 -47 -12 0
-55 -51 -47 -10 -4 0
-55 -51 -47 -8 0
-55 -51 -47 -6 0
-55 -51 -47 -2 0
-55 -51 -45 -6 -2 0
-55 -51 -16 -10 0
-55 -51 -16 -8 0
-55 -51 -12 -10 0
-55 -51 -12 -6 0
-55 -51 -10 -2 0
-55 -51 -8 -6 0
-55 -51 -8 -2 0
-55 -49 -45 -10 -6 0
-55 -49 -12 -10 -6 0
-55 -49 -10 -6 -4 0
-55 -45 -6 0
-55 -18 -12 0
-55 -18 -12 -10 0
-55 -16 0
-55 -16 -10 0
-55 -12 0
-55 -12 -10 -4 0
-55 -12 -6 0
-55 -10 0
-55 -10 -4 0
-55 -6 0
-54 0
-54 -52 -50 -9 -7 0
-54 -52 -48 -9 -5 0
-54 -52 -15 -9 0
-54 -52 -9 0
-54 -52 -9 -3 0
-54 -50 -48 -9 -5 0
-54 -50 -46 -11 0
-54 -50 -46 -9 -3 0
-54 -50 -46 -7 0
-54 -50 -46 -5 0
-54 -50 -46 -1 0
-54 -50 -44 -5 -1 0
-54 -50 -15 -9 0
-54 -50 -15 -7 0
-54 -50 -11 -9 0
-54 -50 -11 -5 0
-54 -50 -9 -1 0
-54 -50 -7 -5 0
-54 -50 -7 -1 0
-54 -48 -44 -9 -5 0
-54 -48 -11 -9 -5 0
-54 -48 -9 -5 -3 0
-54 -44 -5 0
-54 -17 -11 0
-54 -17 -11 -9 0
-54 -15 0
-54 -15 -9 0
-54 -11 0
-54 -11 -9 -3 0
-54 -11 -5 0
-54 -9 0
-54 -9 -3 0
-54 -5 0
-53 0
-53 -51 -49 -8 -6 0
-53 -51 -47 -8 -4 0
-53 -51 -14 -8 0
-53 -51 -8 0
-53 -51 -8 -2 0
-53 -49 -47 -8 -4 0
-53 -49 -45 -43 0
-53 -49 -45 -10 0
-53 -49 -45 -8 -2 0
-53 -49 -45 -6 0
-53 -49 -45 -4 0
-53 -49 -43 -8 0
-53 -49 -43 -6 0
-53 -49 -14 -8 0
-53 -49 -14 -6 0
-53 -49 -10 -8 0
-53 -49 -10 -4 0
-53 -49 -6 -4 0
-53 -47 -10 -8 -4 0
-53 -47 -8 -4 -2 0
-53 -16 -10 0
-53 -16 -10 -8 0
-53 -14 0
-53 -14 -8 0
-53 -10 0
-53 -10 -8 -2 0
-53 -10 -4 0
-53 -8 0
-53 -8 -2 0
-53 -4 0
-52 0
-52 -50 -48 -7 -5 0
-52 -50 -46 -7 -3 0
-52 -50 -13 -7 0
-52 -50 -7 0
-52 -50 -7 -1 0
-52 -48 -46 -7 -3 0
-52 -48 -44 -42 0
-52 -48 -44 -9 0
-52 -48 -44 -7 -1 0
-52 -48 -44 -5 0
-52 -48 -44 -3 0
-52 -48 -42 -7 0
-52 -48 -42 -5 0
-52 -48 -13 -7 0
-52 -48 -13 -5 0
-52 -48 -9 -7 0
-52 -48 -9 -3 0
-52 -48 -5 -3 0
-52 -46 -9 -7 -3 0
-52 -46 -7 -3 -1 0
-52 -15 -9 0
-52 -15 -9 -7 0
-52 -13 0
-52 -13 -7 0
-52 -9 0
-52 -9 -7 -1 0
-52 -9 -3 0
-52 -7 0
-52 -7 -1 0
-52 -3 0
-51 0
-51 -49 -47 -6 -4 0
-51 -49 -45 -6 -2 0
-51 -49 -43 -6 0
-51 -49 -12 -6 0
-51 -49 -6 0
-51 -47 -45 -6 -2 0
-51 -47 -41 -6 0
-51 -47 -41 -4 0
-51 -47 -12 -6 0
-51 -47 -12 -4 0
-51 -47 -8 -6 0
-51 -47 -8 -2 0
-51 -47 -4 -2 0
-51 -45 -43 -6 -2 0
-51 -45 -8 -6 -2 0
-51 -43 -8 -6 0
-51 -43 -6 0
-51 -14 -8 0
-51 -14 -8 -6 0
-51 -12 0
-51 -12 -6 0
-51 -8 0
-51 -8 -2 0
-51 -6 0
-51 -2 0
-50 0
-50 -48 -46 -5 -3 0
-50 -48 -44 -5 -1 0
-50 -48 -42 -5 0
-50 -48 -11 -5 0
-50 -48 -5 0
-50 -46 -44 -5 -1 0
-50 -46 -40 -5 0
-50 -46 -40 -3 0
-50 -46 -11 -5 0
-50 -46 -11 -3 0
-50 -46 -7 -5 0
-50 -46 -7 -1 0
-50 -46 -3 -1 0
-50 -44 -42 -5 -1 0
-50 -44 -7 -5 -1 0
-50 -42 -7 -5 0
-50 -42 -5 0
-50 -13 -7 0
-50 -13 -7 -5 0
-50 -11 0
-50 -11 -5 0
-50 -7 0
-50 -7 -1 0
-50 -5 0
-50 -1 0
-49 0
-49 -47 -45 -4 -2 0
-49 -47 -41 -4 0
-49 -47 -10 -4 0
-49 -47 -4 0
-49 -45 -43 -6 0
-49 -45 -43 -2 0
-49 -45 -39 -4 0
-49 -45 -39 -2 0
-49 -45 -10 -4 0
-49 -45 -10 -2 0
-49 -45 -6 -4 0
-49 -43 0
-49 -43 -6 0
-49 -41 -6 -4 0
-49 -41 -4 0
-49 -12 -6 0
-49 -12 -6 -4 0
-49 -10 0
-49 -10 -4 0
-49 -6 0
-49 -4 0
-48 0
-48 -46 -44 -3 -1 0
-48 -46 -40 -3 0
-48 -46 -9 -3 0
-48 -46 -3 0
-48 -44 -42 -5 0
-48 -44 -42 -1 0
-48 -44 -38 -3 0
-48 -44 -38 -1 0
-48 -44 -9 -3 0
-48 -44 -9 -1 0
-48 -44 -5 -3 0
-48 -42 0
-48 -42 -5 0
-48 -40 -5 -3 0
-48 -40 -3 0
-48 -11 -5 0
-48 -11 -5 -3 0
-48 -9 0
-48 -9 -3 0
-48 -5 0
-48 -3 0
-47 0
-47 -45 -39 -2 0
-47 -45 -8 -2 0
-47 -45 -2 0
-47 -41 0
-47 -41 -4 0
-47 -39 -4 -2 0
-47 -39 -2 0
-47 -10 -4 0
-47 -10 -4 -2 0
-47 -8 0
-47 -8 -2 0
-47 -4 0
-47 -2 0
-46 0
-46 -44 -38 -1 0
-46 -44 -7 -1 0
-46 -44 -1 0
-46 -40 0
-46 -40 -3 0
-46 -38 -3 -1 0
-46 -38 -1 0
-46 -9 -3 0
-46 -9 -3 -1 0
-46 -7 0
-46 -7 -1 0
-46 -3 0
-46 -1 0
-45 0
-45 -43 0
-45 -43 -37 0
-45 -43 -37 -2 0
-45 -43 -8 -2 0
-45 -43 -6 0
-45 -39 0
-45 -39 -2 0
-45 -8 -2 0
-45 -6 0
-45 -2 0
-44 0
-44 -42 0
-44 -42 -36 0
-44 -42 -36 -1 0
-44 -42 -7 -1 0
-44 -42 -5 0
-44 -38 0
-44 -38 -1 0
-44 -7 -1 0
-44 -5 0
-44 -1 0
-43 -40 -37 0
-43 -40 -3 0
-43 -6 -3 0
-42 -39 -36 0
-42 -39 -2 0
-42 -5 -2 0
-41 -38 -35 0
-41 -38 -1 0
-41 -4 -1 0
-40 -37 -34 0
-39 -36 -33 0
-38 -35 -32 0
-37 -34 -31 0
-36 -33 -30 0
-35 -32 -29 0
-34 -31 -28 0
-33 -30 -27 0
-32 -29 -26 0
-31 -28 -25 0
-30 -27 -24 0
-29 -26 -23 0
-28 -25 -22 0
-27 -24 -21 0
-26 -23 -20 0
-25 -22 -19 0
-24 -21 -18 0
-23 -20 -17 0
-22 -19 -16 0
-21 -18 -15 0
-20 -17 -14 0
-19 -16 -13 0
-18 -15 -12 0
-17 -14 -11 0
-16 -13 -10 0
-15 -12 -9 0
-14 -11 -8 0
-13 -10 -7 0
-12 -9 -6 0
-11 -8 -5 0
-10 -7 -4 0
-9 -6 -3 0
-8 -5 -2 0
-7 -4 -1 0
1 14 0
1 20 0
1 25 0
1 31 0
2 15 0
2 21 0
2 26 0
2 32 0
3 16 0
3 22 0
3 27 0
3 33 0
4 17 0
4 23 0
4 28 0
4 34 0
5 18 0
5 24 0
5 29 0
5 35 0
6 19 0
6 25 0
6 30 0
6 36 0
7 20 0
7 26 0
7 31 0
7 37 0
8 21 0
8 27 0
8 32 0
8 38 0
9 22 0
9 28 0
9 33 0
9 39 0
10 23 0
10 29 0
10 34 0
10 40 0
11 24 0
11 30 0
11 35 0
11 41 0
12 25 0
12 31 0
12 36 0
12 42 0
13 26 0
13 32 0
13 37 0
13 43 0
14 27 0
14 33 0
14 38 0
15 28 0
15 34 0
15 39 0
16 29 0
16 35 0
16 40 0
17 30 0
17 36 0
17 41 0
18 31 0
18 37 0
18 42 0
19 32 0
19 38 0
19 43 0
20 33 0
20 39 0
21 34 0
21 40 0
22 35 0
22 41 0
23 36 0
23 42 0
24 37 0
24 43 0
25 38 0
26 39 0
27 40 0
28 41 0
29 42 0
30 43 0
